\ This file has been generated by DOcplex
\ ENCODING=ISO-8859-1
\Problem name: tiger problem

Minimize
 obj: V
Subject To
 c1: V + 21 a1_0 + 65 a1_1 + 65 a1_2 >= 0
 c2: V + 65 a1_0 + 34 a1_1 + 119 a1_2 >= 0
 c3: V + 65 a1_0 + 119 a1_1 + 34 a1_2 >= 0
 c4: a1_0 + a1_1 + a1_2 = 1

Bounds
       a1_0 <= 1
       a1_1 <= 1
       a1_2 <= 1
       V Free
End
